c Result of efficient AIG-to-CNF conversion using package CNF
p cnf 77 206
1 -71 75 0
-1 71 0
-1 -75 0
2 -69 70 0
-2 69 0
-2 -70 0
3 69 -70 0
-3 -69 0
-3 70 0
4 2 3 0
-4 -2 0
-4 -3 0
5 72 4 0
-5 -72 0
-5 -4 0
6 70 -71 0
-6 -70 0
-6 71 0
7 69 -6 0
-7 -69 0
-7 6 0
8 69 -73 0
-8 -69 0
-8 73 0
9 73 7 0
-9 -73 0
-9 -7 0
10 8 9 0
-10 -8 0
-10 -9 0
11 -70 71 0
-11 70 0
-11 -71 0
12 -69 -11 0
-12 69 0
-12 11 0
13 69 -74 0
-13 -69 0
-13 74 0
14 74 12 0
-14 -74 0
-14 -12 0
15 13 14 0
-15 -13 0
-15 -14 0
16 10 15 0
-16 -10 0
-16 -15 0
17 7 12 0
-17 -7 0
-17 -12 0
18 -71 1 0
-18 71 0
-18 -1 0
19 71 -1 0
-19 -71 0
-19 1 0
20 18 19 0
-20 -18 0
-20 -19 0
21 -5 18 0
-21 5 0
-21 -18 0
22 5 -18 0
-22 -5 0
-22 18 0
23 21 22 0
-23 -21 0
-23 -22 0
24 4 -23 0
-24 -4 0
-24 23 0
25 -4 23 0
-25 4 0
-25 -23 0
26 24 25 0
-26 -24 0
-26 -25 0
27 4 5 0
-27 -4 0
-27 -5 0
28 -4 -5 0
-28 4 0
-28 5 0
29 -18 28 0
-29 18 0
-29 -28 0
30 18 -27 0
-30 -18 0
-30 27 0
31 29 30 0
-31 -29 0
-31 -30 0
32 16 -31 0
-32 -16 0
-32 31 0
33 -16 31 0
-33 16 0
-33 -31 0
34 32 33 0
-34 -32 0
-34 -33 0
35 17 -34 0
-35 -17 0
-35 34 0
36 -17 34 0
-36 17 0
-36 -34 0
37 35 36 0
-37 -35 0
-37 -36 0
38 -16 17 0
-38 16 0
-38 -17 0
39 16 -17 0
-39 -16 0
-39 17 0
40 31 39 0
-40 -31 0
-40 -39 0
41 -31 -38 0
-41 31 0
-41 38 0
42 40 41 0
-42 -40 0
-42 -41 0
43 71 -42 0
-43 -71 0
-43 42 0
44 -71 42 0
-44 71 0
-44 -42 0
45 43 44 0
-45 -43 0
-45 -44 0
46 71 -45 0
-46 -71 0
-46 45 0
47 -71 45 0
-47 71 0
-47 -45 0
48 46 47 0
-48 -46 0
-48 -47 0
49 -20 -26 0
-49 20 0
-49 26 0
50 -37 49 0
-50 37 0
-50 -49 0
51 37 -49 0
-51 -37 0
-51 49 0
52 50 51 0
-52 -50 0
-52 -51 0
53 -37 -49 0
-53 37 0
-53 49 0
54 -48 53 0
-54 48 0
-54 -53 0
55 48 -53 0
-55 -48 0
-55 53 0
56 54 55 0
-56 -54 0
-56 -55 0
57 37 -42 0
-57 -37 0
-57 42 0
58 42 52 0
-58 -42 0
-58 -52 0
59 57 58 0
-59 -57 0
-59 -58 0
60 -42 48 0
-60 42 0
-60 -48 0
61 42 56 0
-61 -42 0
-61 -56 0
62 60 61 0
-62 -60 0
-62 -61 0
63 -59 62 0
-63 59 0
-63 -62 0
64 62 63 0
-64 -62 0
-64 -63 0
65 72 73 0
-65 -72 0
-65 -73 0
66 74 75 0
-66 -74 0
-66 -75 0
67 -65 -66 0
-67 65 0
-67 66 0
68 -64 67 0
-68 64 0
-68 -67 0
76 0
68 0

